VACCINE = Vaccine(1..4);
m = 24;
age = [SENIOR, ANCIENT, CHILD, YOUTH, ADULT, ANCIENT, SENIOR, ADULT, CHILD, SENIOR, BABY, SENIOR, SENIOR, CHILD, YOUTH, ADULT, BABY, ADULT, YOUTH, AGED, SENIOR, BABY, CHILD, YOUTH];
gender = [FEMALE, OTHER, FEMALE, FEMALE, OTHER, MALE, MALE, MALE, MALE, MALE, OTHER, OTHER, FEMALE, MALE, OTHER, OTHER, OTHER, OTHER, OTHER, MALE, OTHER, OTHER, FEMALE, MALE];
health = [GOOD, COMPROMISED, COMPROMISED, POOR, GOOD, POOR, GOOD, GOOD, GOOD, POOR, GOOD, POOR, COMPROMISED, COMPROMISED, COMPROMISED, POOR, GOOD, COMPROMISED, GOOD, GOOD, POOR, COMPROMISED, GOOD, COMPROMISED];
exposure = [AVERAGE, EXTREME, LOW, EXTREME, LOW, HIGH, HIGH, AVERAGE, LOW, AVERAGE, AVERAGE, HIGH, LOW, AVERAGE, AVERAGE, EXTREME, EXTREME, LOW, AVERAGE, HIGH, AVERAGE, EXTREME, LOW, EXTREME];
size = [5, 7, 4, 7, 4, 4, 5, 8, 8, 3, 4, 4, 6, 4, 8, 3, 4, 7, 3, 8, 6, 7, 8, 8];
minsize = 3;
age_group_min = [1, 1, 0, 1, 1, 0, 0];
age_group_max = [16, 14, 9, 19, 23, 14, 18];
max_people_diff = 34;
max_share_vaccines = 4;
health_information = {8, 16, 17};
exposure_information = {1, 5, 6, 9};